1
20650.00 28700.00 33250.00  14000.00
10
35 283 375  75 230
8 366 497  187 249
53 409 202  38 229
138 631 605  250 49
518 110 334  275 197
251 714 147  255 211
414 89 205  76 68
159 375 144  69 75
37 322 485  178 152
706 194 404  274 284
